(set-logic QF_SLIA)
(set-option :produce-models true)
(declare-const X String)
; IPUSER-Host\x3AUser-Agent\x3A\x2Fsearchfast\x2F
(assert (str.in_re X (str.to_re "IPUSER-Host:User-Agent:/searchfast/\u{0a}")))
; ^(\+(1\-)?\d{1,3})?(\s|\-)?(\s|\-)?((\(\d{2}\)|\d{2})(\s|\-)?\d{4}|(\(\d{3}\)|\d{3})(\s|\-)?\d{3})(\s|\-)?\d{4}(\s)?(x|ext|ext.)?(\d{1,6})?,?(\d{1,6})?,?(\d{1,6})?$
(assert (not (str.in_re X (re.++ (re.opt (re.++ (str.to_re "+") (re.opt (str.to_re "1-")) ((_ re.loop 1 3) (re.range "0" "9")))) (re.opt (re.union (str.to_re "-") (str.to_re " ") (str.to_re "\u{09}") (str.to_re "\u{0a}") (str.to_re "\u{0c}") (str.to_re "\u{0d}"))) (re.opt (re.union (str.to_re "-") (str.to_re " ") (str.to_re "\u{09}") (str.to_re "\u{0a}") (str.to_re "\u{0c}") (str.to_re "\u{0d}"))) (re.union (re.++ (re.union (re.++ (str.to_re "(") ((_ re.loop 2 2) (re.range "0" "9")) (str.to_re ")")) ((_ re.loop 2 2) (re.range "0" "9"))) (re.opt (re.union (str.to_re "-") (str.to_re " ") (str.to_re "\u{09}") (str.to_re "\u{0a}") (str.to_re "\u{0c}") (str.to_re "\u{0d}"))) ((_ re.loop 4 4) (re.range "0" "9"))) (re.++ (re.union (re.++ (str.to_re "(") ((_ re.loop 3 3) (re.range "0" "9")) (str.to_re ")")) ((_ re.loop 3 3) (re.range "0" "9"))) (re.opt (re.union (str.to_re "-") (str.to_re " ") (str.to_re "\u{09}") (str.to_re "\u{0a}") (str.to_re "\u{0c}") (str.to_re "\u{0d}"))) ((_ re.loop 3 3) (re.range "0" "9")))) (re.opt (re.union (str.to_re "-") (str.to_re " ") (str.to_re "\u{09}") (str.to_re "\u{0a}") (str.to_re "\u{0c}") (str.to_re "\u{0d}"))) ((_ re.loop 4 4) (re.range "0" "9")) (re.opt (re.union (str.to_re " ") (str.to_re "\u{09}") (str.to_re "\u{0a}") (str.to_re "\u{0c}") (str.to_re "\u{0d}"))) (re.opt (re.union (str.to_re "x") (str.to_re "ext") (re.++ (str.to_re "ext") re.allchar))) (re.opt ((_ re.loop 1 6) (re.range "0" "9"))) (re.opt (str.to_re ",")) (re.opt ((_ re.loop 1 6) (re.range "0" "9"))) (re.opt (str.to_re ",")) (re.opt ((_ re.loop 1 6) (re.range "0" "9"))) (str.to_re "\u{0a}")))))
; \u{28}\u{29}\s+WatchDog\sNetspy\d+pjpoptwql\u{2f}rlnjX-Mailer\u{3a}Host\u{3a}snprtz\x7Cdialnoref\x3D\u{25}user\x5Fid
(assert (str.in_re X (re.++ (str.to_re "()") (re.+ (re.union (str.to_re " ") (str.to_re "\u{09}") (str.to_re "\u{0a}") (str.to_re "\u{0c}") (str.to_re "\u{0d}"))) (str.to_re "WatchDog") (re.union (str.to_re " ") (str.to_re "\u{09}") (str.to_re "\u{0a}") (str.to_re "\u{0c}") (str.to_re "\u{0d}")) (str.to_re "Netspy") (re.+ (re.range "0" "9")) (str.to_re "pjpoptwql/rlnjX-Mailer:\u{13}Host:snprtz|dialnoref=%user_id\u{0a}"))))
; ^(\+971[\s]{0,1}[\-]{0,1}[\s]{0,1}|[\s]{0,1}0)(5[056]{1})[\s]{0,1}[\-]{0,1}[\s]{0,1}[1-9]{1}[0-9]{6}$
(assert (not (str.in_re X (re.++ (re.union (re.++ (str.to_re "+971") (re.opt (re.union (str.to_re " ") (str.to_re "\u{09}") (str.to_re "\u{0a}") (str.to_re "\u{0c}") (str.to_re "\u{0d}"))) (re.opt (str.to_re "-")) (re.opt (re.union (str.to_re " ") (str.to_re "\u{09}") (str.to_re "\u{0a}") (str.to_re "\u{0c}") (str.to_re "\u{0d}")))) (re.++ (re.opt (re.union (str.to_re " ") (str.to_re "\u{09}") (str.to_re "\u{0a}") (str.to_re "\u{0c}") (str.to_re "\u{0d}"))) (str.to_re "0"))) (re.opt (re.union (str.to_re " ") (str.to_re "\u{09}") (str.to_re "\u{0a}") (str.to_re "\u{0c}") (str.to_re "\u{0d}"))) (re.opt (str.to_re "-")) (re.opt (re.union (str.to_re " ") (str.to_re "\u{09}") (str.to_re "\u{0a}") (str.to_re "\u{0c}") (str.to_re "\u{0d}"))) ((_ re.loop 1 1) (re.range "1" "9")) ((_ re.loop 6 6) (re.range "0" "9")) (str.to_re "\u{0a}5") ((_ re.loop 1 1) (re.union (str.to_re "0") (str.to_re "5") (str.to_re "6")))))))
; /^<!--\s+[\w]{52,}\s+-->\r\n/smi
(assert (not (str.in_re X (re.++ (str.to_re "/<!--") (re.+ (re.union (str.to_re " ") (str.to_re "\u{09}") (str.to_re "\u{0a}") (str.to_re "\u{0c}") (str.to_re "\u{0d}"))) (re.+ (re.union (str.to_re " ") (str.to_re "\u{09}") (str.to_re "\u{0a}") (str.to_re "\u{0c}") (str.to_re "\u{0d}"))) (str.to_re "-->\u{0d}\u{0a}/smi\u{0a}") ((_ re.loop 52 52) (re.union (re.range "0" "9") (re.range "A" "Z") (re.range "a" "z") (str.to_re "_"))) (re.* (re.union (re.range "0" "9") (re.range "A" "Z") (re.range "a" "z") (str.to_re "_")))))))
(check-sat)
